50
750
504
478
478
472
459
451
422
400
394
380
374
360
358
355
349
343
327
323
320
318
313
310
309
301
301
300
299
294
291
288
284
284
280
279
278
274
273
269
262
252
238
214
207
201
191
190
178
174
170
161
